TYPE: ATSP  
DIMENSION: 9  
FORMAT: FULL_MATRIX  
OPT: 260  
DATA_SECTION  
0 20 35 40 50 60 15 30 45  
18 0 28 25 33 40 22 35 20  
30 35 0 20 45 55 25 40 18  
40 32 25 0 50 60 35 20 33  
35 40 30 28 0 45 22 38 50  
48 25 40 22 35 0 30 28 15  
22 33 45 20 25 32 0 50 40  
30 22 33 28 20 35 45 0 25  
40 25 30 35 45 22 20 38 0  
EOF